0 0 0 0
0 1 0 0
0 2 0 0
0 3 0 0
0 4 1 4
0 5 0 4
0 6 0 5
0 7 0 9
0 8 1 5
0 9 0 15
0 10 0 4
0 11 0 13
0 12 2 16
0 13 0 3
0 14 2 8
0 15 1 8
0 16 0 8
0 17 1 12
0 18 0 18
0 19 2 16
0 20 2 15
0 21 0 24
0 22 0 26
0 23 1 16
0 24 0 31
0 25 0 30
0 26 1 35
0 27 0 39
0 28 0 39
0 29 0 23
0 30 0 42
0 31 0 43
